(set-logic HORN)
(declare-fun state (Int (Array Int Int) (Array Int Int) (Array Int Int) (Array Int Int) Int Int (Array Int Int) (Array Int Int) Int Int Int Int Int Int Int Int Int Int Int Int Int Int Int Int Int Int Bool Bool Bool Bool Bool (Array Int Int) Int) Bool)
(assert (forall ((|A_22| Int) (|C1_12| (Array Int Int)) (|C_22| (Array Int Int)) (|D_22| (Array Int Int)) (|E_22| (Array Int Int)) (|F_22| Int) (|G_22| Int) (|H_22| (Array Int Int)) (|I_22| (Array Int Int)) (|J_22| Int) (|K_22| Int) (|L_22| Int) (|D1_5| Int) (|N_22| Int) (|O_22| Int) (|P_22| Int) (|Q_22| Int) (|R_22| Int) (|S_22| Int) (|T_22| Int) (|E1_4| Int) (|V_22| Int) (|W_22| Int) (|X_22| Int) (|F1_1| Int) (|Z_22| Int) (|A1_22| Int) (|B1_22| Bool) (|.loc.5| Bool) (|.loc.6| Bool) (|.loc.7| Bool) (|.loc.8| Bool) (|C1_0| (Array Int Int)) (|D1_4| Int) (|.x.860| Int) (|.x.858| (Array Int Int)) (|.x.856| Int) (|.x.854| (Array Int Int)) (|.x.850| Int) (|.x.852| (Array Int Int)) (|.x.868| Int) (|.x.870| Int) (|.x.877| Bool) (|.x.851| (Array Int Int)) (|.x.864| Int) (|.x.873| Int) (|.x.875| Int) (|.x.862| Int) (|.x.874| Int) (|.x.869| Int) (|.loc.10| Bool) (|.loc.11| Bool) (|.loc.12| Bool) (|.loc.9| Bool) (|.x.867| Int) (|.x.872| Int) (|.x.863| Int) (|.x.876| Int) (|.x.871| Int) (|.x.866| Int) (|.x.853| (Array Int Int)) (|.x.857| (Array Int Int)) (|.x.855| Int) (|.x.859| Int) (|.x.861| Int) (|.x.865| Int) (|.xtv.1| (Array Int Int)) (|.xtv.2| Int)) (=> (and (and .loc.8 (and (and (not .loc.5) (not .loc.6)) (not .loc.7))) (and (and (and (and (and (= D_22 E_22) (not B1_22)) (= F_22 G_22)) (= J_22 K_22)) (= H_22 I_22)) (= C1_12 C_22))) (state |A_22| |C1_12| |C_22| |D_22| |E_22| |F_22| |G_22| |H_22| |I_22| |J_22| |K_22| |L_22| |D1_5| |N_22| |O_22| |P_22| |Q_22| |R_22| |S_22| |T_22| |E1_4| |V_22| |W_22| |X_22| |F1_1| |Z_22| |A1_22| |B1_22| |.loc.5| |.loc.6| |.loc.7| |.loc.8| |C1_0| |D1_4|))))
(assert (forall ((|A_22| Int) (|C1_12| (Array Int Int)) (|C_22| (Array Int Int)) (|D_22| (Array Int Int)) (|E_22| (Array Int Int)) (|F_22| Int) (|G_22| Int) (|H_22| (Array Int Int)) (|I_22| (Array Int Int)) (|J_22| Int) (|K_22| Int) (|L_22| Int) (|D1_5| Int) (|N_22| Int) (|O_22| Int) (|P_22| Int) (|Q_22| Int) (|R_22| Int) (|S_22| Int) (|T_22| Int) (|E1_4| Int) (|V_22| Int) (|W_22| Int) (|X_22| Int) (|F1_1| Int) (|Z_22| Int) (|A1_22| Int) (|B1_22| Bool) (|.loc.5| Bool) (|.loc.6| Bool) (|.loc.7| Bool) (|.loc.8| Bool) (|C1_0| (Array Int Int)) (|D1_4| Int) (|.x.860| Int) (|.x.858| (Array Int Int)) (|.x.856| Int) (|.x.854| (Array Int Int)) (|.x.850| Int) (|.x.852| (Array Int Int)) (|.x.868| Int) (|.x.870| Int) (|.x.877| Bool) (|.x.851| (Array Int Int)) (|.x.864| Int) (|.x.873| Int) (|.x.875| Int) (|.x.862| Int) (|.x.874| Int) (|.x.869| Int) (|.loc.10| Bool) (|.loc.11| Bool) (|.loc.12| Bool) (|.loc.9| Bool) (|.x.867| Int) (|.x.872| Int) (|.x.863| Int) (|.x.876| Int) (|.x.871| Int) (|.x.866| Int) (|.x.853| (Array Int Int)) (|.x.857| (Array Int Int)) (|.x.855| Int) (|.x.859| Int) (|.x.861| Int) (|.x.865| Int) (|.xtv.1| (Array Int Int)) (|.xtv.2| Int)) (=> (and (state |A_22| |C1_12| |C_22| |D_22| |E_22| |F_22| |G_22| |H_22| |I_22| |J_22| |K_22| |L_22| |D1_5| |N_22| |O_22| |P_22| |Q_22| |R_22| |S_22| |T_22| |E1_4| |V_22| |W_22| |X_22| |F1_1| |Z_22| |A1_22| |B1_22| |.loc.5| |.loc.6| |.loc.7| |.loc.8| |C1_0| |D1_4|) (let ((.def_44 (not .loc.5))) (let ((.def_45 (not .loc.6))) (let ((.def_47 (not .loc.7))) (let ((.def_92 (= O_22 .x.864))) (let ((.def_95 (= X_22 .x.873))) (let ((.def_98 (= Z_22 .x.875))) (let ((.def_100 (= B1_22 .x.877))) (let ((.def_107 (= .x.864 0))) (let ((.def_110 (not .loc.8))) (let ((.def_121 (select D_22 D1_5))) (let ((.def_123 (select .def_121 (+ (* 4 T_22) (+ F1_1 (* 4 (* Q_22 R_22))))))) (let ((.def_125 (<= Q_22 T_22))) (let ((.def_126 (not .def_125))) (let ((.def_135 (or B1_22 (and (and (and (= .x.875 .def_123) .def_126) (= .x.873 (ite (<= .x.875 N_22) 1 0))) (= .x.864 .x.873))))) (let ((.def_137 (= C1_12 .x.851))) (let ((.def_140 (= D1_5 .x.862))) (let ((.def_142 (= S_22 .x.868))) (let ((.def_144 (= E1_4 .x.870))) (let ((.def_147 (= F1_1 .x.874))) (let ((.def_151 (= T_22 .x.869))) (let ((.def_159 (and .def_92 .def_95))) (let ((.def_160 (and .def_100 .def_159))) (let ((.def_170 (not .loc.12))) (let ((.def_172 (not .loc.11))) (let ((.def_174 (not .loc.10))) (let ((.def_179 (= (+ T_22 (* (- 1) .x.869)) (- 1)))) (let ((.def_180 (or B1_22 .def_179))) (let ((.def_185 (and B1_22 .def_92))) (let ((.def_202 (not .loc.9))) (let ((.def_208 (and .def_100 (and .def_98 (and .def_95 (and .def_92 .def_151)))))) (let ((.def_210 (and .loc.7 (and .loc.5 .def_208)))) (let ((.def_222 (<= Q_22 R_22))) (let ((.def_223 (or B1_22 .def_222))) (let ((.def_227 (and .def_100 (and .def_98 .def_159)))) (let ((.def_242 (= .x.869 0))) (let ((.def_244 (or B1_22 (and (not .def_222) .def_242)))) (let ((.def_248 (= R_22 .x.867))) (let ((.def_266 (or B1_22 (= (+ R_22 (* (- 1) .x.867)) (- 1))))) (let ((.def_307 (= .x.867 0))) (let ((.def_330 (and .loc.5 (and .def_100 (and .def_98 (and .def_95 (and .def_151 (and .def_185 .def_248)))))))) (let ((.def_345 (and .def_151 (and .def_92 .def_248)))) (let ((.def_349 (and .loc.5 (and .def_100 (and .def_98 (and .def_95 .def_345)))))) (let ((.def_362 (or B1_22 .def_125))) (let ((.def_406 (= W_22 .x.872))) (let ((.def_408 (= N_22 .x.863))) (let ((.def_438 (and .def_100 (and .def_98 (and .def_95 (and .def_406 (and .def_151 (and .def_248 (and .def_92 (and B1_22 .def_408)))))))))) (let ((.def_453 (and .def_92 .def_408))) (let ((.def_454 (and .def_248 .def_453))) (let ((.def_458 (and .def_98 (and .def_95 (and .def_406 (and .def_151 .def_454)))))) (let ((.def_459 (and .def_100 .def_458))) (let ((.def_480 (and .loc.6 (and .loc.5 (and .def_100 (and .def_98 (and .def_95 (and .def_406 .def_454)))))))) (let ((.def_508 (<= P_22 R_22))) (let ((.def_559 (= A1_22 .x.876))) (let ((.def_561 (= V_22 .x.871))) (let ((.def_600 (or B1_22 (and .def_126 (= D1_4 .def_123))))) (let ((.def_624 (= H_22 .x.857))) (let ((.def_626 (= F_22 .x.855))) (let ((.def_629 (= J_22 .x.859))) (let ((.def_630 (and (and .def_624 .def_626) .def_629))) (let ((.def_632 (= L_22 .x.861))) (let ((.def_633 (and .def_630 .def_632))) (let ((.def_635 (= P_22 .x.865))) (let ((.def_637 (= Q_22 .x.866))) (let ((.def_743 (= D_22 .x.853))) (and (and (= K_22 .x.860) (and (= I_22 .x.858) (and (= G_22 .x.856) (and (= E_22 .x.854) (and (= A_22 .x.850) (= C_22 .x.852)))))) (or (or (and (or (or (or (and (or (or (and (or (or (or (or (or (or (or (or (and (or (or (or (or (or (or (or (or (or (and (or (or (or (and (or (and (or (and .def_44 (and .loc.8 (and .loc.7 (and .loc.6 (and (or (= .x.868 .x.870) .x.877) (and (and (and (and (or B1_22 (and (= (store C1_12 D1_5 0) .x.851) (= .x.870 0))) .def_92) .def_95) .def_98) .def_100)))))) (and (and (and (and (and (and (and (or B1_22 .def_107) (and .def_45 (and .def_47 (and (and .loc.5 .x.877) .def_110)))) .def_135) .def_137) .def_140) .def_142) .def_144) .def_147)) (and (and (and .def_151 .loc.10) .loc.11) .loc.12)) (and (and (and (and (and .def_147 (and .def_144 (and .def_142 (and .def_140 (and .def_137 (and .def_45 (and .def_47 (and .def_110 (and .def_44 .def_160))))))))) .def_170) .def_172) .def_174) .def_180)) .loc.9) (and (and .def_147 (and .def_144 (and .def_142 (and .def_140 (and .def_137 (and .def_45 (and .loc.12 (and .loc.11 (and .loc.10 (and .loc.8 (and .loc.7 (and .loc.5 (and .def_100 (and .def_98 (and .def_95 (and .def_151 .def_185)))))))))))))))) .def_202)) (and (and .def_202 (and .def_147 (and .def_144 (and .def_142 (and .def_140 (and .def_137 (and .def_45 (and .loc.12 (and .loc.11 (and .loc.10 (and .loc.8 .def_210))))))))))) .def_223)) (and (and .def_174 (and .def_172 (and .def_170 (and .def_147 (and .def_144 (and .def_142 (and .def_140 (and .def_137 (and .def_45 (and .loc.9 (and .loc.8 (and .loc.7 (and .loc.5 .def_227))))))))))))) .def_244)) .def_248) (and (and .def_174 (and .def_147 (and .def_144 (and .def_142 (and .def_140 (and .def_137 (and .def_47 (and .def_110 (and .loc.12 (and .loc.11 (and .loc.9 (and .def_44 (and .loc.6 .def_208))))))))))))) .def_266)) (and (or .x.877 (not .def_107)) (and .def_202 (and .def_174 (and .def_172 (and .def_170 (and .def_147 (and .def_144 (and .def_142 (and .def_140 (and .def_137 (and .def_135 (and .def_45 (and .def_47 (and .def_110 (and .loc.5 (and .def_100 (and .def_151 .def_248)))))))))))))))))) (and .def_202 (and .def_174 (and .def_172 (and .def_170 (and .def_147 (and .def_144 (and .def_142 (and .def_140 (and .def_137 (and .def_135 (and .def_45 (and .def_47 (and .def_110 (and .loc.5 (and .def_151 (and .def_248 (and B1_22 .x.877)))))))))))))))))) (and (or B1_22 (and .def_242 .def_307)) (and .def_174 (and .def_147 (and .def_144 (and .def_142 (and .def_140 (and .def_137 (and .def_45 (and .loc.12 (and .loc.11 (and .loc.9 (and .def_44 (and .loc.8 (and .loc.7 .def_227))))))))))))))) (and .def_202 (and .def_172 (and .def_170 (and .def_147 (and .def_144 (and .def_142 (and .def_140 (and .def_137 (and .def_45 (and .def_47 (and .def_110 (and .loc.10 .def_330))))))))))))) (and (and .def_202 (and .def_172 (and .def_170 (and .def_147 (and .def_144 (and .def_142 (and .def_140 (and .def_137 (and .def_45 (and .def_47 (and .def_110 (and .loc.10 .def_349)))))))))))) .def_362)) (and .def_202 (and .def_174 (and .def_147 (and .def_144 (and .def_142 (and .def_140 (and .def_137 (and .def_47 (and .loc.12 (and .loc.11 (and .loc.8 (and .loc.6 .def_330))))))))))))) (and .def_223 (and .def_202 (and .def_174 (and .def_147 (and .def_144 (and .def_142 (and .def_140 (and .def_137 (and .def_47 (and .loc.12 (and .loc.11 (and .loc.8 (and .loc.6 .def_349)))))))))))))) (and .def_266 (and .def_172 (and .def_147 (and .def_144 (and .def_142 (and .def_140 (and .def_137 (and .def_45 (and .def_110 (and .loc.12 (and .loc.10 (and .loc.9 .def_210))))))))))))) (and .def_406 .def_408)) (and (or B1_22 (and .def_307 (and .def_242 (= .x.863 (select .def_121 F1_1))))) (and .def_172 (and .def_147 (and .def_144 (and .def_142 (and .def_140 (and .def_137 (and .def_47 (and .loc.12 (and .loc.10 (and .loc.9 (and .def_44 (and .loc.8 (and .loc.6 .def_227))))))))))))))) (and .def_174 (and .def_170 (and .def_147 (and .def_144 (and .def_142 (and .def_140 (and .def_137 (and .def_45 (and .def_110 (and .loc.11 (and .loc.9 (and .def_44 (and .loc.7 .def_438)))))))))))))) (and .def_362 (and .def_174 (and .def_170 (and .def_147 (and .def_144 (and .def_142 (and .def_140 (and .def_137 (and .def_45 (and .def_110 (and .loc.11 (and .loc.9 (and .def_44 (and .loc.7 .def_459))))))))))))))) (and .def_202 (and .def_180 (and .def_174 (and .def_170 (and .def_147 (and .def_144 (and .def_142 (and .def_140 (and .def_137 (and .def_47 (and .def_110 (and .loc.11 .def_480))))))))))))) (and .def_202 (and .def_172 (and .def_147 (and .def_144 (and .def_142 (and .def_140 (and .def_137 (and .def_45 (and .def_47 (and .loc.12 (and .loc.10 (and .loc.8 (and .loc.5 .def_438)))))))))))))) (and (or B1_22 .def_508) (and .def_202 (and .def_172 (and .def_147 (and .def_144 (and .def_142 (and .def_140 (and .def_137 (and .def_45 (and .def_47 (and .loc.12 (and .loc.10 (and .loc.8 (and .loc.5 .def_459))))))))))))))) (and .def_244 (and .def_202 (and .def_174 (and .def_170 (and .def_147 (and .def_144 (and .def_142 (and .def_140 (and .def_137 (and .def_47 (and .loc.11 (and .loc.8 .def_480))))))))))))) (and .def_266 (and .def_174 (and .def_172 (and .def_147 (and .def_144 (and .def_142 (and .def_140 (and .def_137 (and .def_110 (and .loc.12 (and .loc.9 (and .loc.7 (and .loc.6 (and .loc.5 (and .def_100 (and .def_98 (and .def_95 (and .def_406 (and .def_151 .def_453)))))))))))))))))))) (and .def_559 .def_561)) (and (and (or .x.877 (and (not (<= D1_4 N_22)) (= .x.863 (select (select .x.853 .x.862) (+ .x.874 (+ (* 4 .x.869) (* 4 (* .x.867 .x.866)))))))) (and .def_172 (and .def_170 (and .def_147 (and .def_144 (and .def_142 (and .def_140 (and .def_137 (and .def_45 (and .def_110 (and .loc.10 (and .loc.9 (and .def_44 (and .loc.7 (and .def_100 (and .def_98 (and .def_95 (and .def_345 .def_406)))))))))))))))))) .def_600)) (and (or .x.877 (<= D1_4 .x.863)) (and .def_600 (and .def_172 (and .def_170 (and .def_147 (and .def_144 (and .def_142 (and .def_140 (and .def_137 (and .def_45 (and .def_110 (and .loc.10 (and .loc.9 (and .def_44 (and .loc.7 (and .def_100 (and .def_458 .def_559)))))))))))))))))) (and (and .def_633 .def_635) .def_637)) (and (or B1_22 (and (and (= .x.859 0) (= .x.855 0)) (= C1_0 (store C1_12 0 0)))) (and (or .x.877 (and (and (and (and (and (and (and .def_242 (and .def_307 (and (not (<= .x.850 .x.862)) (= .x.865 1000)))) (= .x.866 1500)) (not (= .x.862 0))) (= .x.874 0)) (= (select C1_0 .x.862) 0)) (= .x.857 (store H_22 .x.862 (* 4 (* .x.866 .x.866))))) (= .x.851 (store C1_0 .x.862 1)))) (and .def_174 (and .def_172 (and .def_142 (and .def_45 (and .def_47 (and .loc.12 (and .loc.9 (and .def_44 (and .loc.8 .def_160)))))))))))) (and .def_170 (and .def_147 (and .def_144 (and .def_142 (and .def_140 (and .def_137 (and .def_110 (and .loc.11 (and .loc.10 (and .loc.9 (and .def_44 (and .loc.7 (and .loc.6 (and .def_100 (and .def_559 (and .def_98 (and .def_95 (and .def_406 (and .def_561 (and .def_151 (and .def_248 (and .def_637 (and .def_635 (and .def_92 (and .def_408 (and .def_632 (and .def_629 (and .def_624 (and B1_22 .def_626)))))))))))))))))))))))))))))) (and .def_362 (and .def_170 (and .def_147 (and .def_144 (and .def_142 (and .def_140 (and .def_137 (and .def_110 (and .loc.11 (and .loc.10 (and .loc.9 (and .def_44 (and .loc.7 (and .loc.6 (and .def_100 (and .def_559 (and .def_98 (and .def_95 (and .def_406 (and .def_561 (and .def_151 (and .def_248 (and .def_637 (and .def_635 (and .def_92 (and .def_408 .def_633))))))))))))))))))))))))))) .def_743) (and (or B1_22 (and (= .x.853 (store D_22 D1_5 (store .def_121 (+ (* 4 T_22) (+ F1_1 (* 4 (* Q_22 R_22)))) L_22))) (and .def_179 (and (<= (- 2147483648) L_22) (and .def_126 (<= L_22 2147483647)))))) (and .def_202 (and .def_170 (and .def_147 (and .def_144 (and .def_142 (and .def_140 (and .def_137 (and .def_110 (and .loc.11 (and .loc.10 (and .def_44 (and .loc.7 (and .loc.6 (and .def_100 (and .def_559 (and .def_98 (and .def_95 (and .def_406 (and .def_561 (and .def_248 (and .def_637 (and .def_635 (and .def_92 (and .def_408 .def_630)))))))))))))))))))))))))) (and (or B1_22 (and .def_242 (not .def_508))) (and .def_202 (and .def_170 (and .def_147 (and .def_144 (and .def_142 (and .def_140 (and .def_137 (and .def_45 (and .def_47 (and .loc.11 (and .loc.10 (and .loc.8 (and .loc.5 (and .def_100 (and .def_559 (and .def_98 (and .def_95 (and .def_406 (and .def_561 (and .def_248 (and .def_637 (and .def_635 (and .def_92 (and .def_408 (and .def_632 (and .def_629 (and .def_624 (and .def_626 .def_743)))))))))))))))))))))))))))))))))))))))))))))))))))))))))))))))))))))))))))))))))))))))))))))))) (state |.x.850| |.x.851| |.x.852| |.x.853| |.x.854| |.x.855| |.x.856| |.x.857| |.x.858| |.x.859| |.x.860| |.x.861| |.x.862| |.x.863| |.x.864| |.x.865| |.x.866| |.x.867| |.x.868| |.x.869| |.x.870| |.x.871| |.x.872| |.x.873| |.x.874| |.x.875| |.x.876| |.x.877| |.loc.9| |.loc.10| |.loc.11| |.loc.12| |.xtv.1| |.xtv.2|))))
(assert (forall ((|A_22| Int) (|C1_12| (Array Int Int)) (|C_22| (Array Int Int)) (|D_22| (Array Int Int)) (|E_22| (Array Int Int)) (|F_22| Int) (|G_22| Int) (|H_22| (Array Int Int)) (|I_22| (Array Int Int)) (|J_22| Int) (|K_22| Int) (|L_22| Int) (|D1_5| Int) (|N_22| Int) (|O_22| Int) (|P_22| Int) (|Q_22| Int) (|R_22| Int) (|S_22| Int) (|T_22| Int) (|E1_4| Int) (|V_22| Int) (|W_22| Int) (|X_22| Int) (|F1_1| Int) (|Z_22| Int) (|A1_22| Int) (|B1_22| Bool) (|.loc.5| Bool) (|.loc.6| Bool) (|.loc.7| Bool) (|.loc.8| Bool) (|C1_0| (Array Int Int)) (|D1_4| Int) (|.x.860| Int) (|.x.858| (Array Int Int)) (|.x.856| Int) (|.x.854| (Array Int Int)) (|.x.850| Int) (|.x.852| (Array Int Int)) (|.x.868| Int) (|.x.870| Int) (|.x.877| Bool) (|.x.851| (Array Int Int)) (|.x.864| Int) (|.x.873| Int) (|.x.875| Int) (|.x.862| Int) (|.x.874| Int) (|.x.869| Int) (|.loc.10| Bool) (|.loc.11| Bool) (|.loc.12| Bool) (|.loc.9| Bool) (|.x.867| Int) (|.x.872| Int) (|.x.863| Int) (|.x.876| Int) (|.x.871| Int) (|.x.866| Int) (|.x.853| (Array Int Int)) (|.x.857| (Array Int Int)) (|.x.855| Int) (|.x.859| Int) (|.x.861| Int) (|.x.865| Int) (|.xtv.1| (Array Int Int)) (|.xtv.2| Int)) (=> (state |A_22| |C1_12| |C_22| |D_22| |E_22| |F_22| |G_22| |H_22| |I_22| |J_22| |K_22| |L_22| |D1_5| |N_22| |O_22| |P_22| |Q_22| |R_22| |S_22| |T_22| |E1_4| |V_22| |W_22| |X_22| |F1_1| |Z_22| |A1_22| |B1_22| |.loc.5| |.loc.6| |.loc.7| |.loc.8| |C1_0| |D1_4|) (not (and B1_22 (and .loc.8 (and .loc.7 (and .loc.5 .loc.6))))))))
(check-sat)
